NAME          
ROWS
 N  OBJ
 L  c1
 L  c2
COLUMNS
    MARKER    'MARKER'                 'INTORG'
    x[1]      c1        695
    x[1]      c2        618
    x[1]      OBJ       -962
    x[2]      c1        503
    x[2]      c2        140
    x[2]      OBJ       -585
    x[3]      c1        908
    x[3]      c2        600
    x[3]      OBJ       -974
    x[4]      c1        116
    x[4]      c2        393
    x[4]      OBJ       -505
    x[5]      c1        111
    x[5]      c2        133
    x[5]      OBJ       -247
    x[6]      c1        176
    x[6]      c2        36
    x[6]      OBJ       -118
    x[7]      c1        253
    x[7]      c2        634
    x[7]      OBJ       -840
    x[8]      c1        297
    x[8]      c2        511
    x[8]      OBJ       -522
    x[9]      c1        268
    x[9]      c2        687
    x[9]      OBJ       -691
    x[10]     c1        691
    x[10]     c2        627
    x[10]     OBJ       -6
RHS
    rhs       c1        2009
    rhs       c2        2190
RANGES
BOUNDS
 LO bounds    x[1]      0
 PL bounds    x[1]
 LO bounds    x[2]      0
 PL bounds    x[2]
 LO bounds    x[3]      0
 PL bounds    x[3]
 LO bounds    x[4]      0
 PL bounds    x[4]
 LO bounds    x[5]      0
 PL bounds    x[5]
 LO bounds    x[6]      0
 PL bounds    x[6]
 LO bounds    x[7]      0
 PL bounds    x[7]
 LO bounds    x[8]      0
 PL bounds    x[8]
 LO bounds    x[9]      0
 PL bounds    x[9]
 LO bounds    x[10]     0
 PL bounds    x[10]
ENDATA
